JulietBench/Juliet_Based_Patch_Bench/linux/CWE-189-Numeric-Errors/CVE_2017_5546_c4e490cf148e85ead0d1b1c2caaba833f1d5b29f/Resultnext_random_slot_Snippet_patch1NEQ.smt2
; benchmark generated from python API
(set-info :status unknown)
(declare-fun rsi () (_ BitVec 64))
(declare-fun rdi () (_ BitVec 64))
(declare-fun R () (_ BitVec 32))
(assert
 (let ((?x8 ((_ extract 31 0) rsi)))
 (let ((?x21 ((_ extract 31 31) rsi)))
 (let ((?x59 (concat (concat (concat (concat (concat ?x21 ?x21) ?x21) ?x21) ?x21) ?x21)))
 (let ((?x64 (concat (concat (concat (concat (concat ?x59 ?x21) ?x21) ?x21) ?x21) ?x21)))
 (let ((?x69 (concat (concat (concat (concat (concat ?x64 ?x21) ?x21) ?x21) ?x21) ?x21)))
 (let ((?x74 (concat (concat (concat (concat (concat ?x69 ?x21) ?x21) ?x21) ?x21) ?x21)))
 (let ((?x79 (concat (concat (concat (concat (concat ?x74 ?x21) ?x21) ?x21) ?x21) ?x21)))
 (let ((?x84 (concat (concat (concat (concat (concat ?x79 ?x21) ?x21) ?x21) ?x21) ?x21)))
 (let ((?x86 (concat (concat ?x84 ?x21) ?x8)))
 (let ((?x6 ((_ extract 31 0) rdi)))
 (let ((?x13 (bvashr ?x6 (_ bv31 32))))
 (let ((?x14 (concat ?x13 ?x6)))
 (let ((?x87 (bvsrem ?x14 ?x86)))
 (let ((?x88 ((_ extract 31 0) ?x87)))
 (let (($x131 (= R ?x88)))
 (let (($x19 (and (distinct (_ bv0 32) ?x8) true)))
 (let (($x109 (bvslt ?x88 ?x8)))
 (let (($x134 (and $x109 $x19 $x131)))
 (let (($x132 (= (_ bv0 32) R)))
 (let (($x127 (bvsge ?x88 ?x8)))
 (let (($x133 (and $x127 $x19 $x132)))
 (let (($x135 (or $x133 $x134)))
 (let (($x139 (not $x135)))
 (let (($x137 (and $x19 $x131)))
 (let (($x138 (not $x137)))
 (let (($x140 (and $x138 $x139)))
 (let (($x136 (and $x19 $x131 $x135)))
 (let (($x141 (or $x136 $x140)))
 (not $x141))))))))))))))))))))))))))))))
(check-sat)
